(set-info :smt-lib-version 2.6)
(set-logic QF_DT)
(set-info :source |
Generated by: Federico Mora
Generated on: 2023-07-20
Generator: z3 Python bindings via UCLID5 Python API
Application: Blocksworld Automated Reasoning Problems.
Target solvers: Algaroba, cvc5, Z3, Princess
Publications: Shah, Mora and Seshia. An Eager Satisfiability Modulo Theories Solver for Algebraic Datatypes. AAAI ’24 |)
(set-info :license "https://creativecommons.org/licenses/by/4.0/")
(set-info :category "industrial")
(set-info :status unsat) 
(declare-datatypes ((Enum_A_B_C_D_E_F_G_H_I_J_K_L_M_N_O_P_Q_R_S_T_U 0)) (((A) (B) (C) (D) (E) (F) (G) (H) (I) (J) (K) (L) (M) (N) (O) (P) (Q) (R) (S) (T) (U))))
(declare-datatypes ((Tower 0)) (((stack (top Enum_A_B_C_D_E_F_G_H_I_J_K_L_M_N_O_P_Q_R_S_T_U) (rest Tower)) (empty))))
(declare-datatypes ((Record_left_center_right 0)) (((Record_left_center_right (left Tower) (center Tower) (right Tower)))))
(declare-datatypes ((Enum_left-to-center_left-to-right_center-to-left_center-to-right_right-to-left_right-to-center 0)) (((left-to-center) (left-to-right) (center-to-left) (center-to-right) (right-to-left) (right-to-center))))
(declare-fun s () Record_left_center_right)
(declare-fun s_tmp () Record_left_center_right)
(declare-fun c () Enum_left-to-center_left-to-right_center-to-left_center-to-right_right-to-left_right-to-center)
(declare-fun c_tmp () Enum_left-to-center_left-to-right_center-to-left_center-to-right_right-to-left_right-to-center)
(declare-fun s_tmp_ () Record_left_center_right)
(declare-fun s_tmp__ () Record_left_center_right)
(declare-fun s_tmp___ () Record_left_center_right)
(declare-fun c!0 () Enum_left-to-center_left-to-right_center-to-left_center-to-right_right-to-left_right-to-center)
(declare-fun c_tmp____ () Enum_left-to-center_left-to-right_center-to-left_center-to-right_right-to-left_right-to-center)
(declare-fun s_ () Record_left_center_right)
(declare-fun c_ () Enum_left-to-center_left-to-right_center-to-left_center-to-right_right-to-left_right-to-center)
(assert
 (= s_tmp s))
(assert
 (= c_tmp c))
(assert
 (let ((?x121 (left s_tmp_)))
 (= ?x121 empty)))
(assert
 (let ((?x124 (center s_tmp__)))
 (= ?x124 empty)))
(assert
 (let ((?x33 (stack A empty)))
 (let ((?x34 (stack B ?x33)))
 (let ((?x35 (stack C ?x34)))
 (let ((?x36 (stack D ?x35)))
 (let ((?x37 (stack E ?x36)))
 (let ((?x38 (stack F ?x37)))
 (let ((?x39 (stack G ?x38)))
 (let ((?x40 (stack H ?x39)))
 (let ((?x41 (stack I ?x40)))
 (let ((?x42 (stack J ?x41)))
 (let ((?x43 (stack K ?x42)))
 (let ((?x44 (stack L ?x43)))
 (let ((?x45 (stack M ?x44)))
 (let ((?x46 (stack N ?x45)))
 (let ((?x47 (stack O ?x46)))
 (let ((?x48 (stack P ?x47)))
 (let ((?x49 (stack Q ?x48)))
 (let ((?x50 (stack R ?x49)))
 (let ((?x51 (stack S ?x50)))
 (let ((?x52 (stack T ?x51)))
 (let ((?x53 (stack U ?x52)))
 (let ((?x127 (right s_tmp___)))
 (= ?x127 ?x53))))))))))))))))))))))))
(assert
 (= c_tmp____ c!0))
(assert
 (= s_ s_tmp___))
(assert
 (= c_ c_tmp____))
(assert
 (let ((?x154 (left s_tmp__)))
 (= (left s_tmp___) ?x154)))
(assert
 (let ((?x124 (center s_tmp__)))
 (= (center s_tmp___) ?x124)))
(assert
 (let ((?x158 (center s_tmp_)))
 (= ?x158 (center s_tmp))))
(assert
 (let ((?x161 (right s_tmp_)))
 (= ?x161 (right s_tmp))))
(assert
 (let ((?x121 (left s_tmp_)))
 (let ((?x154 (left s_tmp__)))
 (= ?x154 ?x121))))
(assert
 (let ((?x161 (right s_tmp_)))
 (let ((?x165 (right s_tmp__)))
 (= ?x165 ?x161))))
(assert
 (let ((?x69 (stack G (stack R (stack P (stack C (stack M (stack O empty))))))))
 (let ((?x71 (stack Q (stack U ?x69))))
 (let ((?x103 (center s_)))
 (let ((?x59 (stack N (stack B (stack T (stack D (stack L (stack H empty))))))))
 (let ((?x63 (stack J (stack A (stack K (stack I ?x59))))))
 (let ((?x98 (left s_)))
 (let (($x170 (and (= ?x98 ?x63) (= ?x103 ?x71) (= (right s_) (stack S (stack F (stack E empty)))))))
 (let (($x171 (not $x170)))
 (not $x171))))))))))
(check-sat)
(exit)
